feasible solution found by trivial heuristic after 0.1 seconds, objective value 0.000000e+00
presolving:
(round 1, fast)       0 del vars, 19 del conss, 0 add conss, 100 chg bounds, 0 chg sides, 0 chg coeffs, 0 upgd conss, 0 impls, 2082 clqs
(round 2, exhaustive) 0 del vars, 791 del conss, 0 add conss, 100 chg bounds, 281 chg sides, 0 chg coeffs, 0 upgd conss, 0 impls, 2082 clqs
(round 3, exhaustive) 0 del vars, 791 del conss, 0 add conss, 100 chg bounds, 281 chg sides, 0 chg coeffs, 1852 upgd conss, 0 impls, 2082 clqs
   (3.9s) probing: 151/5251 (2.9%) - 0 fixings, 0 aggregations, 246684 implications, 0 bound changes
   (3.9s) probing aborted: 50/50 successive totally useless probings
   (3.9s) symmetry computation started: requiring (bin +, int -, cont -), (fixed: bin -, int +, cont +)
   (3.9s) no symmetry present
presolving (4 rounds: 4 fast, 3 medium, 3 exhaustive):
 0 deleted vars, 791 deleted constraints, 0 added constraints, 100 tightened bounds, 0 added holes, 281 changed sides, 0 changed coefficients
 4842 implications, 28368 cliques
presolved problem has 5351 variables (5251 bin, 0 int, 0 impl, 100 cont) and 2003 constraints
     51 constraints of type <knapsack>
   1801 constraints of type <setppc>
    100 constraints of type <linear>
     51 constraints of type <nonlinear>
Presolving Time: 3.92
transformed 2/2 original solutions to the transformed problem space

 time | node  | left  |LP iter|LP it/n|mem/heur|mdpt |vars |cons |rows |cuts |sepa|confs|strbr|  dualbound   | primalbound  |  gap   | compl. 
p 4.4s|     1 |     0 |     0 |     - |  clique|   0 |  10k|2003 |2003 |   0 |  0 |   0 |   0 | 1.382348e+06 | 7.079854e+04 |1852.51%| unknown
 13.3s|     1 |     0 |  1883 |     - |    90M |   0 |  10k|2003 |2003 |   0 |  0 |   0 |   0 | 2.720306e+05 | 7.079854e+04 | 284.23%| unknown
 13.7s|     1 |     0 |  2283 |     - |    95M |   0 |  10k|2003 |2005 |   2 |  1 |   0 |   0 | 2.661416e+05 | 7.079854e+04 | 275.91%| unknown
 14.0s|     1 |     0 |  2452 |     - |    97M |   0 |  10k|2003 |2009 |   6 |  2 |   0 |   0 | 2.548355e+05 | 7.079854e+04 | 259.94%| unknown
 14.3s|     1 |     0 |  2758 |     - |   100M |   0 |  10k|2003 |2016 |  13 |  3 |   0 |   0 | 2.411443e+05 | 7.079854e+04 | 240.61%| unknown
 14.7s|     1 |     0 |  2815 |     - |   104M |   0 |  10k|2003 |2022 |  19 |  4 |   0 |   0 | 2.357925e+05 | 7.079854e+04 | 233.05%| unknown
 14.9s|     1 |     0 |  3064 |     - |   114M |   0 |  10k|2004 |2030 |  27 |  5 |   1 |   0 | 2.254615e+05 | 7.079854e+04 | 218.46%| unknown
 15.3s|     1 |     0 |  3226 |     - |   119M |   0 |  10k|2004 |2036 |  33 |  6 |   1 |   0 | 2.213599e+05 | 7.079854e+04 | 212.66%| unknown
 15.5s|     1 |     0 |  3357 |     - |   120M |   0 |  10k|2005 |2043 |  40 |  7 |   2 |   0 | 2.184822e+05 | 7.079854e+04 | 208.60%| unknown
 15.7s|     1 |     0 |  3549 |     - |   126M |   0 |  10k|2006 |2050 |  47 |  8 |   3 |   0 | 2.145252e+05 | 7.079854e+04 | 203.01%| unknown
 16.2s|     1 |     0 |  3647 |     - |   130M |   0 |  10k|2006 |2056 |  53 |  9 |   3 |   0 | 2.135331e+05 | 7.079854e+04 | 201.61%| unknown
 16.7s|     1 |     0 |  3726 |     - |   137M |   0 |  10k|2006 |2064 |  61 | 10 |   3 |   0 | 2.122891e+05 | 7.079854e+04 | 199.85%| unknown
 17.0s|     1 |     0 |  4068 |     - |   137M |   0 |  10k|2006 |2022 |  70 | 11 |   3 |   0 | 2.081716e+05 | 7.079854e+04 | 194.03%| unknown
 17.3s|     1 |     0 |  4245 |     - |   137M |   0 |  10k|2006 |2030 |  78 | 12 |   3 |   0 | 2.062245e+05 | 7.079854e+04 | 191.28%| unknown
 17.6s|     1 |     0 |  4669 |     - |   137M |   0 |  10k|2006 |2037 |  85 | 13 |   3 |   0 | 2.049215e+05 | 7.079854e+04 | 189.44%| unknown
 time | node  | left  |LP iter|LP it/n|mem/heur|mdpt |vars |cons |rows |cuts |sepa|confs|strbr|  dualbound   | primalbound  |  gap   | compl. 
 17.9s|     1 |     0 |  4888 |     - |   137M |   0 |  10k|2006 |2043 |  91 | 14 |   3 |   0 | 2.036376e+05 | 7.079854e+04 | 187.63%| unknown
 18.1s|     1 |     0 |  4958 |     - |   137M |   0 |  10k|2006 |2049 |  97 | 15 |   3 |   0 | 2.029280e+05 | 7.079854e+04 | 186.63%| unknown
 18.4s|     1 |     0 |  5101 |     - |   138M |   0 |  10k|2006 |2056 | 104 | 16 |   3 |   0 | 2.010894e+05 | 7.079854e+04 | 184.03%| unknown
 18.5s|     1 |     0 |  5346 |     - |   138M |   0 |  10k|2007 |2064 | 113 | 17 |   4 |   0 | 2.003387e+05 | 7.079854e+04 | 182.97%| unknown
 18.7s|     1 |     0 |  5645 |     - |   138M |   0 |  10k|2008 |2071 | 120 | 18 |   5 |   0 | 1.984295e+05 | 7.079854e+04 | 180.27%| unknown
 18.9s|     1 |     0 |  5779 |     - |   138M |   0 |  10k|2009 |2080 | 129 | 19 |   6 |   0 | 1.974095e+05 | 7.079854e+04 | 178.83%| unknown
 19.2s|     1 |     0 |  5992 |     - |   139M |   0 |  10k|2009 |2092 | 141 | 20 |   6 |   0 | 1.964391e+05 | 7.079854e+04 | 177.46%| unknown
 19.5s|     1 |     0 |  6167 |     - |   139M |   0 |  10k|2009 |2098 | 147 | 21 |   6 |   0 | 1.950656e+05 | 7.079854e+04 | 175.52%| unknown
 19.8s|     1 |     0 |  6263 |     - |   139M |   0 |  10k|2009 |2104 | 153 | 22 |   6 |   0 | 1.946192e+05 | 7.079854e+04 | 174.89%| unknown
 20.1s|     1 |     0 |  6430 |     - |   139M |   0 |  10k|2009 |2107 | 162 | 23 |   6 |   0 | 1.935652e+05 | 7.079854e+04 | 173.40%| unknown
 20.5s|     1 |     0 |  6769 |     - |   139M |   0 |  10k|2009 |2117 | 172 | 24 |   6 |   0 | 1.916752e+05 | 7.079854e+04 | 170.73%| unknown
 20.7s|     1 |     0 |  6896 |     - |   139M |   0 |  10k|2010 |2126 | 181 | 25 |   7 |   0 | 1.902883e+05 | 7.079854e+04 | 168.77%| unknown
 21.0s|     1 |     0 |  7127 |     - |   139M |   0 |  10k|2010 |2134 | 189 | 26 |   7 |   0 | 1.897739e+05 | 7.079854e+04 | 168.05%| unknown
 21.3s|     1 |     0 |  7253 |     - |   139M |   0 |  10k|2010 |2140 | 195 | 27 |   7 |   0 | 1.893314e+05 | 7.079854e+04 | 167.42%| unknown
 21.6s|     1 |     0 |  7393 |     - |   139M |   0 |  10k|2010 |2148 | 203 | 28 |   7 |   0 | 1.887177e+05 | 7.079854e+04 | 166.56%| unknown
 time | node  | left  |LP iter|LP it/n|mem/heur|mdpt |vars |cons |rows |cuts |sepa|confs|strbr|  dualbound   | primalbound  |  gap   | compl. 
 22.0s|     1 |     0 |  7512 |     - |   139M |   0 |  10k|2010 |2154 | 214 | 29 |   7 |   0 | 1.873613e+05 | 7.079854e+04 | 164.64%| unknown
 22.2s|     1 |     0 |  7560 |     - |   139M |   0 |  10k|2010 |2159 | 219 | 30 |   7 |   0 | 1.872464e+05 | 7.079854e+04 | 164.48%| unknown
 22.6s|     1 |     0 |  7769 |     - |   139M |   0 |  10k|2010 |2168 | 228 | 31 |   7 |   0 | 1.870013e+05 | 7.079854e+04 | 164.13%| unknown
 23.1s|     1 |     0 |  8145 |     - |   139M |   0 |  10k|2010 |2179 | 239 | 32 |   7 |   0 | 1.854760e+05 | 7.079854e+04 | 161.98%| unknown
 23.5s|     1 |     0 |  8356 |     - |   139M |   0 |  10k|2010 |2187 | 247 | 33 |   7 |   0 | 1.850702e+05 | 7.079854e+04 | 161.40%| unknown
 24.0s|     1 |     0 |  8585 |     - |   139M |   0 |  10k|2010 |2197 | 257 | 34 |   7 |   0 | 1.829280e+05 | 7.079854e+04 | 158.38%| unknown
 24.3s|     1 |     0 |  8968 |     - |   140M |   0 |  10k|2010 |2195 | 268 | 35 |   7 |   0 | 1.824609e+05 | 7.079854e+04 | 157.72%| unknown
 24.6s|     1 |     0 |  9153 |     - |   140M |   0 |  10k|2010 |2201 | 274 | 36 |   7 |   0 | 1.816231e+05 | 7.079854e+04 | 156.54%| unknown
 25.0s|     1 |     0 |  9429 |     - |   140M |   0 |  10k|2010 |2207 | 280 | 37 |   7 |   0 | 1.810439e+05 | 7.079854e+04 | 155.72%| unknown
 25.5s|     1 |     0 |  9589 |     - |   140M |   0 |  10k|2010 |2216 | 289 | 38 |   7 |   0 | 1.806337e+05 | 7.079854e+04 | 155.14%| unknown
 25.9s|     1 |     0 |  9681 |     - |   140M |   0 |  10k|2010 |2225 | 298 | 39 |   7 |   0 | 1.801492e+05 | 7.079854e+04 | 154.45%| unknown
 26.6s|     1 |     0 |  9934 |     - |   140M |   0 |  10k|2010 |2236 | 309 | 40 |   7 |   0 | 1.790949e+05 | 7.079854e+04 | 152.96%| unknown
 27.0s|     1 |     0 | 10022 |     - |   140M |   0 |  10k|2010 |2235 | 319 | 41 |   7 |   0 | 1.789298e+05 | 7.079854e+04 | 152.73%| unknown
 27.5s|     1 |     0 | 10086 |     - |   140M |   0 |  10k|2010 |2247 | 331 | 42 |   7 |   0 | 1.787978e+05 | 7.079854e+04 | 152.54%| unknown
 27.8s|     1 |     0 | 10168 |     - |   140M |   0 |  10k|2010 |2259 | 343 | 43 |   7 |   0 | 1.784103e+05 | 7.079854e+04 | 152.00%| unknown
 time | node  | left  |LP iter|LP it/n|mem/heur|mdpt |vars |cons |rows |cuts |sepa|confs|strbr|  dualbound   | primalbound  |  gap   | compl. 
 28.2s|     1 |     0 | 10582 |     - |   140M |   0 |  10k|2010 |2266 | 350 | 44 |   7 |   0 | 1.774258e+05 | 7.079854e+04 | 150.61%| unknown
 28.7s|     1 |     0 | 10671 |     - |   140M |   0 |  10k|2010 |2278 | 362 | 45 |   7 |   0 | 1.770271e+05 | 7.079854e+04 | 150.04%| unknown
 28.9s|     1 |     0 | 10823 |     - |   140M |   0 |  10k|2011 |2288 | 372 | 46 |   8 |   0 | 1.767802e+05 | 7.079854e+04 | 149.69%| unknown
 29.5s|     1 |     0 | 10889 |     - |   140M |   0 |  10k|2011 |2280 | 380 | 47 |   8 |   0 | 1.764674e+05 | 7.079854e+04 | 149.25%| unknown
 30.0s|     1 |     0 | 10953 |     - |   140M |   0 |  10k|2011 |2288 | 388 | 48 |   8 |   0 | 1.761233e+05 | 7.079854e+04 | 148.77%| unknown
 30.7s|     1 |     0 | 11215 |     - |   141M |   0 |  10k|2012 |2296 | 396 | 49 |   9 |   0 | 1.757735e+05 | 7.079854e+04 | 148.27%| unknown
 31.1s|     1 |     0 | 11299 |     - |   141M |   0 |  10k|2012 |2301 | 401 | 50 |   9 |   0 | 1.756779e+05 | 7.079854e+04 | 148.14%| unknown
 31.5s|     1 |     0 | 11447 |     - |   141M |   0 |  10k|2012 |2312 | 412 | 51 |   9 |   0 | 1.755581e+05 | 7.079854e+04 | 147.97%| unknown
 31.9s|     1 |     0 | 11641 |     - |   141M |   0 |  10k|2013 |2320 | 420 | 52 |  10 |   0 | 1.754251e+05 | 7.079854e+04 | 147.78%| unknown
 32.3s|     1 |     0 | 11845 |     - |   141M |   0 |  10k|2013 |2306 | 428 | 53 |  10 |   0 | 1.752559e+05 | 7.079854e+04 | 147.54%| unknown
 32.8s|     1 |     0 | 11950 |     - |   141M |   0 |  10k|2013 |2314 | 436 | 54 |  10 |   0 | 1.751979e+05 | 7.079854e+04 | 147.46%| unknown
 33.1s|     1 |     0 | 12371 |     - |   141M |   0 |  10k|2013 |2326 | 448 | 55 |  10 |   0 | 1.745305e+05 | 7.079854e+04 | 146.52%| unknown
 33.5s|     1 |     0 | 12487 |     - |   141M |   0 |  10k|2013 |2339 | 461 | 56 |  10 |   0 | 1.743667e+05 | 7.079854e+04 | 146.29%| unknown
 33.9s|     1 |     0 | 12828 |     - |   141M |   0 |  10k|2013 |2350 | 472 | 57 |  10 |   0 | 1.742434e+05 | 7.079854e+04 | 146.11%| unknown
 34.2s|     1 |     0 | 13061 |     - |   141M |   0 |  10k|2013 |2357 | 479 | 58 |  10 |   0 | 1.739500e+05 | 7.079854e+04 | 145.70%| unknown
 time | node  | left  |LP iter|LP it/n|mem/heur|mdpt |vars |cons |rows |cuts |sepa|confs|strbr|  dualbound   | primalbound  |  gap   | compl. 
r34.4s|     1 |     0 | 13061 |     - |shifting|   0 |  10k|2014 |2357 | 479 | 58 |  11 |   0 | 1.739500e+05 | 7.834576e+04 | 122.03%| unknown
 34.5s|     1 |     0 | 13191 |     - |   141M |   0 |  10k|2014 |2350 | 487 | 59 |  11 |   0 | 1.738960e+05 | 7.834576e+04 | 121.96%| unknown
i34.5s|     1 |     0 | 13537 |     - |  oneopt|   0 |  10k|2014 |2350 | 487 | 59 |  11 |   0 | 1.738960e+05 | 7.892213e+04 | 120.34%| unknown
 34.8s|     1 |     0 | 13647 |     - |   142M |   0 |  10k|2014 |2358 | 495 | 60 |  11 |   0 | 1.738308e+05 | 7.892213e+04 | 120.26%| unknown
 35.1s|     1 |     0 | 13844 |     - |   142M |   0 |  10k|2014 |2369 | 506 | 61 |  11 |   0 | 1.737090e+05 | 7.892213e+04 | 120.10%| unknown
 35.4s|     1 |     0 | 14022 |     - |   142M |   0 |  10k|2014 |2381 | 518 | 62 |  11 |   0 | 1.735937e+05 | 7.892213e+04 | 119.96%| unknown
 35.8s|     1 |     0 | 14099 |     - |   142M |   0 |  10k|2014 |2370 | 524 | 63 |  11 |   0 | 1.735827e+05 | 7.892213e+04 | 119.94%| unknown
r36.2s|     1 |     0 | 14099 |     - |shifting|   0 |  10k|2014 |2370 | 524 | 63 |  11 |   0 | 1.735827e+05 | 8.594051e+04 | 101.98%| unknown
 36.2s|     1 |     0 | 14176 |     - |   142M |   0 |  10k|2014 |2379 | 533 | 64 |  11 |   0 | 1.735395e+05 | 8.594051e+04 | 101.93%| unknown
i36.3s|     1 |     0 | 14514 |     - |  oneopt|   0 |  10k|2014 |2379 | 533 | 64 |  11 |   0 | 1.735395e+05 | 8.620092e+04 | 101.32%| unknown
 36.8s|     1 |     0 | 14634 |     - |   143M |   0 |  10k|2014 |2387 | 541 | 65 |  11 |   0 | 1.734426e+05 | 8.620092e+04 | 101.21%| unknown
 37.1s|     1 |     0 | 14780 |     - |   143M |   0 |  10k|2014 |2397 | 551 | 66 |  11 |   0 | 1.734016e+05 | 8.620092e+04 | 101.16%| unknown
 37.7s|     1 |     0 | 15538 |     - |   143M |   0 |  10k|2014 |2391 | 558 | 67 |  11 |   0 | 1.733047e+05 | 8.620092e+04 | 101.05%| unknown
 38.1s|     1 |     0 | 16230 |     - |   143M |   0 |  10k|2014 |2398 | 565 | 68 |  11 |   0 | 1.731781e+05 | 8.620092e+04 | 100.90%| unknown
 38.5s|     1 |     0 | 16376 |     - |   143M |   0 |  10k|2014 |2404 | 571 | 69 |  11 |   0 | 1.729560e+05 | 8.620092e+04 | 100.64%| unknown
 time | node  | left  |LP iter|LP it/n|mem/heur|mdpt |vars |cons |rows |cuts |sepa|confs|strbr|  dualbound   | primalbound  |  gap   | compl. 
 39.1s|     1 |     0 | 17840 |     - |   143M |   0 |  10k|2014 |2410 | 577 | 70 |  11 |   0 | 1.728005e+05 | 8.620092e+04 | 100.46%| unknown
 39.5s|     1 |     0 | 18323 |     - |   143M |   0 |  10k|2014 |2416 | 583 | 71 |  11 |   0 | 1.727348e+05 | 8.620092e+04 | 100.39%| unknown
 39.8s|     1 |     0 | 19022 |     - |   143M |   0 |  10k|2015 |2417 | 584 | 72 |  12 |   0 | 1.726725e+05 | 8.620092e+04 | 100.31%| unknown
 40.3s|     1 |     0 | 19710 |     - |   143M |   0 |  10k|2015 |2401 | 591 | 73 |  12 |   0 | 1.726401e+05 | 8.620092e+04 | 100.28%| unknown
 40.5s|     1 |     0 | 20223 |     - |   143M |   0 |  10k|2016 |2407 | 597 | 74 |  13 |   0 | 1.725600e+05 | 8.620092e+04 | 100.18%| unknown
 40.9s|     1 |     0 | 20844 |     - |   143M |   0 |  10k|2016 |2411 | 601 | 75 |  13 |   0 | 1.725230e+05 | 8.620092e+04 | 100.14%| unknown
 41.4s|     1 |     0 | 21453 |     - |   143M |   0 |  10k|2016 |2421 | 611 | 76 |  13 |   0 | 1.723647e+05 | 8.620092e+04 |  99.96%| unknown
 41.8s|     1 |     0 | 21983 |     - |   143M |   0 |  10k|2016 |2425 | 615 | 77 |  13 |   0 | 1.723451e+05 | 8.620092e+04 |  99.93%| unknown
 42.1s|     1 |     0 | 22191 |     - |   143M |   0 |  10k|2016 |2428 | 618 | 78 |  13 |   0 | 1.723426e+05 | 8.620092e+04 |  99.93%| unknown
 42.4s|     1 |     0 | 22469 |     - |   143M |   0 |  10k|2016 |2404 | 623 | 79 |  13 |   0 | 1.723212e+05 | 8.620092e+04 |  99.91%| unknown
 42.5s|     1 |     0 | 22956 |     - |   143M |   0 |  10k|2017 |2408 | 627 | 80 |  14 |   0 | 1.723096e+05 | 8.620092e+04 |  99.89%| unknown
 42.6s|     1 |     0 | 22977 |     - |   143M |   0 |  10k|2018 |2413 | 632 | 81 |  15 |   0 | 1.723096e+05 | 8.620092e+04 |  99.89%| unknown
 42.9s|     1 |     0 | 22981 |     - |   143M |   0 |  10k|2018 |2415 | 634 | 82 |  15 |   0 | 1.723095e+05 | 8.620092e+04 |  99.89%| unknown
 43.1s|     1 |     0 | 23017 |     - |   143M |   0 |  10k|2019 |2419 | 638 | 83 |  16 |   0 | 1.722963e+05 | 8.620092e+04 |  99.88%| unknown
 43.4s|     1 |     0 | 23286 |     - |   143M |   0 |  10k|2019 |2424 | 643 | 84 |  16 |   0 | 1.722487e+05 | 8.620092e+04 |  99.82%| unknown
 time | node  | left  |LP iter|LP it/n|mem/heur|mdpt |vars |cons |rows |cuts |sepa|confs|strbr|  dualbound   | primalbound  |  gap   | compl. 
 43.4s|     1 |     0 | 23398 |     - |   141M |   0 |  10k|2020 |2402 | 648 | 85 |  17 |   0 | 1.722394e+05 | 8.620092e+04 |  99.81%| unknown
 43.6s|     1 |     0 | 23662 |     - |   139M |   0 |  10k|2021 |2407 | 653 | 86 |  18 |   0 | 1.722323e+05 | 8.620092e+04 |  99.80%| unknown
 43.6s|     1 |     0 | 23723 |     - |   139M |   0 |  10k|2022 |2415 | 661 | 87 |  19 |   0 | 1.722302e+05 | 8.620092e+04 |  99.80%| unknown
 43.9s|     1 |     0 | 23748 |     - |   139M |   0 |  10k|2022 |2419 | 665 | 88 |  19 |   0 | 1.722302e+05 | 8.620092e+04 |  99.80%| unknown
 44.2s|     1 |     0 | 23898 |     - |   139M |   0 |  10k|2022 |2423 | 669 | 89 |  19 |   0 | 1.722255e+05 | 8.620092e+04 |  99.80%| unknown
 44.3s|     1 |     0 | 24128 |     - |   139M |   0 |  10k|2023 |2425 | 671 | 90 |  20 |   0 | 1.722134e+05 | 8.620092e+04 |  99.78%| unknown
 46.1s|     1 |     0 | 33034 |     - |   140M |   0 |  10k|2023 |2425 | 671 | 92 |  20 |   0 | 1.722134e+05 | 8.620092e+04 |  99.78%| unknown
 46.4s|     1 |     0 | 33165 |     - |   140M |   0 |  10k|2023 |2393 | 672 | 93 |  20 |   0 | 1.722109e+05 | 8.620092e+04 |  99.78%| unknown
 46.8s|     1 |     0 | 33269 |     - |   140M |   0 |  10k|2023 |2394 | 673 | 94 |  20 |   0 | 1.722105e+05 | 8.620092e+04 |  99.78%| unknown
 47.1s|     1 |     0 | 33308 |     - |   140M |   0 |  10k|2023 |2395 | 674 | 95 |  20 |   0 | 1.722091e+05 | 8.620092e+04 |  99.78%| unknown
d47.5s|     1 |     0 | 33615 |     - |farkasdi|   0 |  10k|2023 |2395 |   0 | 97 |  20 |   0 | 1.722091e+05 | 1.556974e+05 |  10.61%| unknown
 57.5s|     1 |     0 | 47466 |     - |   158M |   0 |  10k|2076 |2395 | 674 | 97 |  73 |   0 | 1.722091e+05 | 1.556974e+05 |  10.61%| unknown
 57.9s|     1 |     0 | 48363 |     - |   158M |   0 |  10k|2076 |2398 | 677 | 98 |  73 |   0 | 1.719891e+05 | 1.556974e+05 |  10.46%| unknown
 58.2s|     1 |     0 | 48621 |     - |   159M |   0 |  10k|2076 |2394 | 683 | 99 |  73 |   0 | 1.719386e+05 | 1.556974e+05 |  10.43%| unknown
 60.7s|     1 |     0 | 48658 |     - |   160M |   0 |  10k|2076 |2394 | 683 | 99 |  75 |  12 | 1.710170e+05 | 1.556974e+05 |   9.84%| unknown
 time | node  | left  |LP iter|LP it/n|mem/heur|mdpt |vars |cons |rows |cuts |sepa|confs|strbr|  dualbound   | primalbound  |  gap   | compl. 
 61.0s|     1 |     0 | 48947 |     - |   160M |   0 |  10k|2076 |2399 | 688 |100 |  75 |  12 | 1.710170e+05 | 1.556974e+05 |   9.84%| unknown
 61.0s|     1 |     0 | 48974 |     - |   160M |   0 |  10k|2077 |2404 | 693 |101 |  76 |  12 | 1.710170e+05 | 1.556974e+05 |   9.84%| unknown
 62.5s|     1 |     0 | 50272 |     - |   161M |   0 |  10k|1952 |2404 | 693 |101 |  78 |  18 | 1.694797e+05 | 1.556974e+05 |   8.85%| unknown
 62.9s|     1 |     0 | 50622 |     - |   161M |   0 |  10k|1952 |2251 | 704 |102 |  78 |  18 | 1.690713e+05 | 1.556974e+05 |   8.59%| unknown
 63.3s|     1 |     0 | 51141 |     - |   161M |   0 |  10k|1952 |2261 | 714 |103 |  78 |  18 | 1.683680e+05 | 1.556974e+05 |   8.14%| unknown
 63.5s|     1 |     0 | 51141 |     - |   161M |   0 |  10k|1946 |2261 | 714 |103 |  78 |  18 | 1.683680e+05 | 1.556974e+05 |   8.14%| unknown
 63.6s|     1 |     0 | 51359 |     - |   161M |   0 |  10k|1915 |2270 | 723 |104 |  78 |  18 | 1.681698e+05 | 1.556974e+05 |   8.01%| unknown
 64.0s|     1 |     0 | 51911 |     - |   161M |   0 |  10k|1915 |2279 | 732 |105 |  78 |  18 | 1.676674e+05 | 1.556974e+05 |   7.69%| unknown
 64.8s|     1 |     0 | 52504 |     - |   161M |   0 |  10k|1751 |2279 | 732 |105 |  78 |  23 | 1.655296e+05 | 1.556974e+05 |   6.31%| unknown
 65.0s|     1 |     0 | 52775 |     - |   161M |   0 |  10k|1749 |2285 | 738 |106 |  78 |  23 | 1.648203e+05 | 1.556974e+05 |   5.86%| unknown
 65.3s|     1 |     0 | 53390 |     - |   161M |   0 |  10k|1749 |2283 | 745 |107 |  78 |  23 | 1.644270e+05 | 1.556974e+05 |   5.61%| unknown
 66.1s|     1 |     0 | 54404 |     - |   161M |   0 |  10k|1679 |2283 | 745 |107 |  80 |  28 | 1.630338e+05 | 1.556974e+05 |   4.71%| unknown
 66.4s|     1 |     0 | 54915 |     - |   161M |   0 |  10k|1677 |1997 | 753 |108 |  80 |  28 | 1.626003e+05 | 1.556974e+05 |   4.43%| unknown
 66.6s|     1 |     0 | 54915 |     - |   161M |   0 |  10k|1677 |1967 | 753 |108 |  80 |  28 | 1.626003e+05 | 1.556974e+05 |   4.43%| unknown
 66.6s|     1 |     0 | 55073 |     - |   161M |   0 |  10k|1677 |1978 | 764 |109 |  80 |  28 | 1.619264e+05 | 1.556974e+05 |   4.00%| unknown
 time | node  | left  |LP iter|LP it/n|mem/heur|mdpt |vars |cons |rows |cuts |sepa|confs|strbr|  dualbound   | primalbound  |  gap   | compl. 
 66.9s|     1 |     0 | 55073 |     - |   161M |   0 |  10k|1638 |1978 | 764 |109 |  80 |  28 | 1.619264e+05 | 1.556974e+05 |   4.00%| unknown
 66.9s|     1 |     0 | 55226 |     - |   161M |   0 |  10k|1578 |1984 | 770 |110 |  80 |  28 | 1.616899e+05 | 1.556974e+05 |   3.85%| unknown
 67.1s|     1 |     0 | 55289 |     - |   161M |   0 |  10k|1578 |1957 | 775 |111 |  80 |  28 | 1.616272e+05 | 1.556974e+05 |   3.81%| unknown
 67.3s|     1 |     0 | 55289 |     - |   161M |   0 |  10k|1578 |1933 | 775 |111 |  80 |  28 | 1.616272e+05 | 1.556974e+05 |   3.81%| unknown
 67.3s|     1 |     0 | 55289 |     - |   161M |   0 |  10k|1554 |1933 | 775 |111 |  80 |  28 | 1.616272e+05 | 1.556974e+05 |   3.81%| unknown
 67.4s|     1 |     0 | 55358 |     - |   161M |   0 |  10k|1554 |1943 | 785 |112 |  80 |  28 | 1.615573e+05 | 1.556974e+05 |   3.76%| unknown
 67.6s|     1 |     0 | 55453 |     - |   161M |   0 |  10k|1554 |1950 | 792 |113 |  80 |  28 | 1.613838e+05 | 1.556974e+05 |   3.65%| unknown
(run 1, node 1) restarting after 732 global fixings of integer variables

(restart) converted 238 cuts from the global cut pool into linear constraints

presolving:
(round 1, fast)       5897 del vars, 10 del conss, 0 add conss, 0 chg bounds, 0 chg sides, 1028 chg coeffs, 0 upgd conss, 4846 impls, 23088 clqs
(round 2, exhaustive) 5897 del vars, 12 del conss, 0 add conss, 0 chg bounds, 0 chg sides, 1028 chg coeffs, 0 upgd conss, 4846 impls, 23088 clqs
(round 3, exhaustive) 5897 del vars, 21 del conss, 0 add conss, 0 chg bounds, 9 chg sides, 1028 chg coeffs, 0 upgd conss, 4846 impls, 23088 clqs
(round 4, exhaustive) 5897 del vars, 21 del conss, 0 add conss, 0 chg bounds, 9 chg sides, 1028 chg coeffs, 229 upgd conss, 4846 impls, 23088 clqs
presolving (5 rounds: 5 fast, 4 medium, 4 exhaustive):
 5897 deleted vars, 21 deleted constraints, 0 added constraints, 0 tightened bounds, 0 added holes, 9 changed sides, 1030 changed coefficients
 4846 implications, 23089 cliques
presolved problem has 4605 variables (4519 bin, 0 int, 0 impl, 86 cont) and 1770 constraints
     51 constraints of type <knapsack>
   1574 constraints of type <setppc>
     86 constraints of type <linear>
      8 constraints of type <logicor>
     51 constraints of type <nonlinear>
Presolving Time: 4.39
transformed 21/37 original solutions to the transformed problem space

 time | node  | left  |LP iter|LP it/n|mem/heur|mdpt |vars |cons |rows |cuts |sepa|confs|strbr|  dualbound   | primalbound  |  gap   | compl. 
 70.8s|     1 |     0 | 57969 |     - |   166M |   0 |9038 |1770 |1752 |   0 |  0 |  80 |  28 | 1.613838e+05 | 1.556974e+05 |   3.65%| unknown
 71.2s|     1 |     0 | 58148 |     - |   167M |   0 |9038 |1771 |1756 |   4 |  1 |  81 |  28 | 1.606242e+05 | 1.556974e+05 |   3.16%| unknown
 71.9s|     1 |     0 | 58376 |     - |   168M |   0 |9038 |1771 |1761 |   9 |  2 |  81 |  28 | 1.601592e+05 | 1.556974e+05 |   2.87%| unknown
 72.3s|     1 |     0 | 58509 |     - |   168M |   0 |9038 |1771 |1769 |  17 |  3 |  81 |  28 | 1.599010e+05 | 1.556974e+05 |   2.70%| unknown
 72.8s|     1 |     0 | 58643 |     - |   168M |   0 |9038 |1771 |1778 |  26 |  4 |  81 |  28 | 1.595721e+05 | 1.556974e+05 |   2.49%| unknown
 73.2s|     1 |     0 | 58704 |     - |   170M |   0 |9038 |1771 |1786 |  34 |  5 |  81 |  28 | 1.594025e+05 | 1.556974e+05 |   2.38%| unknown
 73.8s|     1 |     0 | 58855 |     - |   172M |   0 |9038 |1771 |1795 |  43 |  6 |  81 |  28 | 1.592332e+05 | 1.556974e+05 |   2.27%| unknown
 74.2s|     1 |     0 | 58945 |     - |   173M |   0 |9038 |1771 |1807 |  55 |  7 |  81 |  28 | 1.591897e+05 | 1.556974e+05 |   2.24%| unknown
 74.3s|     1 |     0 | 59067 |     - |   173M |   0 |9038 |1772 |1817 |  65 |  8 |  82 |  28 | 1.591210e+05 | 1.556974e+05 |   2.20%| unknown
 74.7s|     1 |     0 | 59218 |     - |   173M |   0 |9038 |1772 |1827 |  75 |  9 |  82 |  28 | 1.590522e+05 | 1.556974e+05 |   2.15%| unknown
 75.1s|     1 |     0 | 59315 |     - |   175M |   0 |9038 |1772 |1838 |  86 | 10 |  82 |  28 | 1.590517e+05 | 1.556974e+05 |   2.15%| unknown
 75.4s|     1 |     0 | 59402 |     - |   175M |   0 |9038 |1772 |1855 | 103 | 11 |  82 |  28 | 1.590224e+05 | 1.556974e+05 |   2.14%| unknown
 75.6s|     1 |     0 | 59435 |     - |   175M |   0 |9038 |1772 |1868 | 116 | 12 |  82 |  28 | 1.589979e+05 | 1.556974e+05 |   2.12%| unknown
 76.1s|     1 |     0 | 59487 |     - |   175M |   0 |9038 |1772 |1883 | 131 | 13 |  82 |  28 | 1.589855e+05 | 1.556974e+05 |   2.11%| unknown
 76.4s|     1 |     0 | 59647 |     - |   176M |   0 |9038 |1772 |1900 | 148 | 14 |  82 |  28 | 1.589701e+05 | 1.556974e+05 |   2.10%| unknown
 time | node  | left  |LP iter|LP it/n|mem/heur|mdpt |vars |cons |rows |cuts |sepa|confs|strbr|  dualbound   | primalbound  |  gap   | compl. 
 76.7s|     1 |     0 | 59816 |     - |   176M |   0 |9038 |1772 |1796 | 162 | 15 |  82 |  28 | 1.589628e+05 | 1.556974e+05 |   2.10%| unknown
 77.0s|     1 |     0 | 60029 |     - |   176M |   0 |9038 |1772 |1812 | 178 | 16 |  82 |  28 | 1.589585e+05 | 1.556974e+05 |   2.09%| unknown
 77.4s|     1 |     0 | 60106 |     - |   176M |   0 |9038 |1772 |1827 | 193 | 17 |  82 |  28 | 1.589548e+05 | 1.556974e+05 |   2.09%| unknown
 77.7s|     1 |     0 | 60168 |     - |   176M |   0 |9038 |1772 |1841 | 207 | 18 |  82 |  28 | 1.589545e+05 | 1.556974e+05 |   2.09%| unknown
 78.1s|     1 |     0 | 60182 |     - |   176M |   0 |9038 |1772 |1853 | 219 | 19 |  82 |  28 | 1.589540e+05 | 1.556974e+05 |   2.09%| unknown
 78.4s|     1 |     0 | 60249 |     - |   177M |   0 |9038 |1772 |1866 | 232 | 20 |  82 |  28 | 1.589535e+05 | 1.556974e+05 |   2.09%| unknown
 78.7s|     1 |     0 | 60317 |     - |   177M |   0 |9038 |1772 |1846 | 247 | 21 |  82 |  28 | 1.589528e+05 | 1.556974e+05 |   2.09%| unknown
 79.1s|     1 |     0 | 60330 |     - |   177M |   0 |9038 |1772 |1858 | 259 | 22 |  82 |  28 | 1.589524e+05 | 1.556974e+05 |   2.09%| unknown
 83.7s|     1 |     0 | 86669 |     - |   185M |   0 |9038 |  97 |1858 | 259 | 22 |  82 |  28 | 1.556974e+05 | 1.556974e+05 |   0.00%| unknown
 83.7s|     1 |     0 | 86669 |     - |   185M |   0 |9038 |  97 |1858 | 259 | 22 |  82 |  28 | 1.556974e+05 | 1.556974e+05 |   0.00%| unknown

SCIP Status        : problem is solved [optimal solution found]
Solving Time (sec) : 83.74
Solving Nodes      : 1 (total of 2 nodes in 2 runs)
Primal Bound       : +1.55697394544782e+05 (38 solutions)
Dual Bound         : +1.55697394544782e+05
Gap                : 0.00 %
Solve Status: optimal
Solve Time: 83.74 seconds
